1 11206
2 11206
3 11206
4 11206
5 11206
6 11206
7 11206
8 11206
9 11206
10 10494
11 7828
12 7828
13 7828
14 7828
15 7828
16 7828
17 7140
18 7140
19 7140
20 7140
21 7140
22 7140
23 7140
24 7140
25 7140
26 7140
27 7140
28 7140
29 7140
30 7140
